10
45
0 1 111
0 2 209
0 3 413
0 4 505
0 5 524
0 6 300
0 7 458
0 8 503
0 9 396
1 2 35
1 3 31
1 4 91
1 5 56
1 6 99
1 7 64
1 8 23
1 9 254
2 3 274
2 4 67
2 5 148
2 6 7
2 7 249
2 8 52
2 9 271
3 4 146
3 5 281
3 6 324
3 7 394
3 8 275
3 9 406
4 5 76
4 6 143
4 7 113
4 8 112
4 9 275
5 6 154
5 7 190
5 8 160
5 9 168
6 7 6
6 8 225
6 9 86
7 8 204
7 9 362
8 9 245

